p cnf 66 180
c inputs: 1 2 3 4 5 6
c variables for gates: 7 ... 60
c outputs: 61 62 63 64 65 66
c random input: 1 2 3 4 -5 6
7 -1 -4 0
-7 1 0
-7 4 0
8 -2 -4 0
-8 2 0
-8 4 0
9 -3 -4 0
-9 3 0
-9 4 0
10 -1 -5 0
-10 1 0
-10 5 0
11 -2 -5 0
-11 2 0
-11 5 0
12 -3 -5 0
-12 3 0
-12 5 0
13 -1 -6 0
-13 1 0
-13 6 0
14 -2 -6 0
-14 2 0
-14 6 0
15 -3 -6 0
-15 3 0
-15 6 0
16 -8 -10 0
-16 8 0
-16 10 0
17 -8 10 0
-17 8 0
-17 -10 0
18 -10 8 0
-18 10 0
-18 -8 0
19 18 17 0
-19 -18 0
-19 -17 0
20 -11 -9 0
-20 11 0
-20 9 0
21 -9 -13 0
-21 9 0
-21 13 0
22 -11 -13 0
-22 11 0
-22 13 0
23 22 21 0
-23 -22 0
-23 -21 0
24 20 -23 0
-24 -20 0
-24 23 0
25 -11 13 0
-25 11 0
-25 -13 0
26 -13 11 0
-26 13 0
-26 -11 0
27 26 25 0
-27 -26 0
-27 -25 0
28 -9 -27 0
-28 9 0
-28 27 0
29 9 27 0
-29 -9 0
-29 -27 0
30 28 29 0
-30 -28 0
-30 -29 0
31 -14 -12 0
-31 14 0
-31 12 0
32 -12 14 0
-32 12 0
-32 -14 0
33 -14 12 0
-33 14 0
-33 -12 0
34 32 33 0
-34 -32 0
-34 -33 0
35 16 30 0
-35 -16 0
-35 -30 0
36 -16 -30 0
-36 16 0
-36 30 0
37 36 35 0
-37 -36 0
-37 -35 0
38 -16 30 0
-38 16 0
-38 -30 0
39 34 -24 0
-39 -34 0
-39 24 0
40 -34 24 0
-40 34 0
-40 -24 0
41 40 39 0
-41 -40 0
-41 -39 0
42 -38 -41 0
-42 38 0
-42 41 0
43 38 41 0
-43 -38 0
-43 -41 0
44 42 43 0
-44 -42 0
-44 -43 0
45 34 -38 0
-45 -34 0
-45 38 0
46 24 -38 0
-46 -24 0
-46 38 0
47 34 24 0
-47 -34 0
-47 -24 0
48 47 46 0
-48 -47 0
-48 -46 0
49 -48 45 0
-49 48 0
-49 -45 0
50 -15 31 0
-50 15 0
-50 -31 0
51 15 -31 0
-51 -15 0
-51 31 0
52 51 50 0
-52 -51 0
-52 -50 0
53 -52 49 0
-53 52 0
-53 -49 0
54 52 -49 0
-54 -52 0
-54 49 0
55 53 54 0
-55 -53 0
-55 -54 0
56 -15 49 0
-56 15 0
-56 -49 0
57 -31 49 0
-57 31 0
-57 -49 0
58 -15 -31 0
-58 15 0
-58 31 0
59 58 57 0
-59 -58 0
-59 -57 0
60 56 -59 0
-60 -56 0
-60 59 0
-61 7 0
61 -7 0
-62 -19 0
62 19 0
-63 -37 0
63 37 0
-64 -44 0
64 44 0
-65 -55 0
65 55 0
-66 -60 0
66 60 0
61 0
62 0
-63 0
-64 0
-65 0
66 0
